c 3 - XORSAT
p cnf 10 40
3 4 6 0
-3 -4 6 0
-3 4 -6 0
3 -4 -6 0
-5 -7 -10 0
-5 7 10 0
5 -7 10 0
5 7 -10 0
8 10 9 0
-8 -10 9 0
-8 10 -9 0
8 -10 -9 0
-4 -7 -10 0
-4 7 10 0
4 -7 10 0
4 7 -10 0
2 1 8 0
-2 -1 8 0
-2 1 -8 0
2 -1 -8 0
2 4 9 0
-2 -4 9 0
-2 4 -9 0
2 -4 -9 0
1 3 5 0
-1 -3 5 0
-1 3 -5 0
1 -3 -5 0
-1 -2 -6 0
-1 2 6 0
1 -2 6 0
1 2 -6 0
5 6 9 0
-5 -6 9 0
-5 6 -9 0
5 -6 -9 0
3 7 8 0
-3 -7 8 0
-3 7 -8 0
3 -7 -8 0
